33D32945 STP File, STP Format Version 1.0

SECTION Comments
Name "shell_n10_d3_s8"
Problem "Euclidean Steiner Tree Problem"
Remark "Generated with STPGenerator. 3 dimensions."
END

SECTION Graph
Nodes 10
END

SECTION Coordinates
DDD 0 0.5446074138 0.1777522493 -0.8196382755
DDD 1 0.3989987183 -0.2552711240 0.8807023765
DDD 2 0.3205826483 0.9314205785 0.1722860171
DDD 3 -0.6523457103 -0.6766426977 0.3414670319
DDD 4 0.8405074210 0.0471384685 0.5397455326
DDD 5 0.8027423722 0.1997432404 0.5618783870
DDD 6 -0.7475521250 0.6532327758 -0.1202196366
DDD 7 -0.9293966313 -0.2068249671 -0.3056882965
DDD 8 0.4056703516 -0.1962445054 -0.8927035678
DDD 9 -0.7303051528 -0.4926466554 0.4732374210
END
